#FePC2d                                 
   1.00000000000000     
    21.2999992370999998    0.0000000000000000    0.0000000000000000
     0.0000000000000000   21.2999992370999998    0.0000000000000000
     0.0000000000000000    0.0000000000000000   15.0000000000000000
   H    C    N    Fe
    16    80    32     4
Direct
  0.0906705180000031  0.2209151509999998  0.4989585699999992
  0.0906705180000031  0.7209151509999998  0.4989585699999992
  0.5906705180000031  0.2209151509999998  0.4989585699999992
  0.5906705180000031  0.7209151509999998  0.4989585699999992
  0.2209459620000018  0.0906369490000003  0.5008843029999994
  0.2209459620000018  0.5906369490000003  0.5008843029999994
  0.7209459620000018  0.0906369490000003  0.5008843029999994
  0.7209459620000018  0.5906369490000003  0.5008843029999994
  0.4599928049999988  0.0902448410000005  0.5010341799999978
  0.4599928049999988  0.5902448410000005  0.5010341799999978
  0.9599928049999988  0.0902448410000005  0.5010341799999978
  0.9599928049999988  0.5902448410000005  0.5010341799999978
  0.0902733479999966  0.4599621159999998  0.4995418809999990
  0.0902733479999966  0.9599621159999998  0.4995418809999990
  0.5902733479999966  0.4599621159999998  0.4995418809999990
  0.5902733479999966  0.9599621159999998  0.4995418809999990
  0.0351322980000006  0.3070311930000003  0.4991471299999972
  0.0351322980000006  0.8070311930000003  0.4991471299999972
  0.5351322980000006  0.3070311930000003  0.4991471299999972
  0.5351322980000006  0.8070311930000003  0.4991471299999972
  0.1458480769999966  0.3071349439999977  0.4990996220000028
  0.1458480769999966  0.8071349439999977  0.4990996220000028
  0.6458480769999966  0.3071349439999977  0.4990996220000028
  0.6458480769999966  0.8071349439999977  0.4990996220000028
  0.3070657270000012  0.0350997999999976  0.5010775080000016
  0.3070657270000012  0.5350997999999976  0.5010775080000016
  0.8070657270000012  0.0350997999999976  0.5010775080000016
  0.8070657270000012  0.5350997999999976  0.5010775080000016
  0.3071646269999988  0.1458157940000007  0.5009247070000029
  0.3071646269999988  0.6458157940000007  0.5009247070000029
  0.8071646269999988  0.1458157940000007  0.5009247070000029
  0.8071646269999988  0.6458157940000007  0.5009247070000029
  0.2111847879999971  0.2879851860000002  0.4995308609999967
  0.2111847879999971  0.7879851860000002  0.4995308609999967
  0.7111847879999971  0.2879851860000002  0.4995308609999967
  0.7111847879999971  0.7879851860000002  0.4995308609999967
  0.2880150209999996  0.2111529479999987  0.5004105539999983
  0.2880150209999996  0.7111529479999987  0.5004105539999983
  0.7880150209999996  0.2111529479999987  0.5004105539999983
  0.7880150209999996  0.7111529479999987  0.5004105539999983
  0.0905938000000006  0.2720974510000005  0.4989957029999985
  0.0905938000000006  0.7720974510000005  0.4989957029999985
  0.5905938000000006  0.2720974510000005  0.4989957029999985
  0.5905938000000006  0.7720974510000005  0.4989957029999985
  0.2721287290000021  0.0905601899999979  0.5010141079999997
  0.2721287290000021  0.5905601899999979  0.5010141079999997
  0.7721287290000021  0.0905601899999979  0.5010141079999997
  0.7721287290000021  0.5905601899999979  0.5010141079999997
  0.3737679030000010  0.0350383970000010  0.5011175599999973
  0.3737679030000010  0.5350383970000010  0.5011175599999973
  0.8737679030000010  0.0350383970000010  0.5011175599999973
  0.8737679030000010  0.5350383970000010  0.5011175599999973
  0.3738635149999965  0.1457552890000002  0.5009650289999996
  0.3738635149999965  0.6457552890000002  0.5009650289999996
  0.8738635149999965  0.1457552890000002  0.5009650289999996
  0.8738635149999965  0.6457552890000002  0.5009650289999996
  0.4699416910000025  0.2878191320000028  0.4996254269999980
  0.4699416910000025  0.7878191320000028  0.4996254269999980
  0.9699416910000025  0.2878191320000028  0.4996254269999980
  0.9699416910000025  0.7878191320000028  0.4996254269999980
  0.3930616319999984  0.2109469829999995  0.5004620489999994
  0.3930616319999984  0.7109469829999995  0.5004620489999994
  0.8930616319999984  0.2109469829999995  0.5004620489999994
  0.8930616319999984  0.7109469829999995  0.5004620489999994
  0.4088087390000013  0.0902947929999982  0.5011050620000006
  0.4088087390000013  0.5902947929999982  0.5011050620000006
  0.9088087390000013  0.0902947929999982  0.5011050620000006
  0.9088087390000013  0.5902947929999982  0.5011050620000006
  0.0350739759999996  0.3737342229999996  0.4992968820000030
  0.0350739759999996  0.8737342229999996  0.4992968820000030
  0.5350739759999996  0.3737342229999996  0.4992968820000030
  0.5350739759999996  0.8737342229999996  0.4992968820000030
  0.1457889770000023  0.3738338750000025  0.4992570000000001
  0.1457889770000023  0.8738338750000025  0.4992570000000001
  0.6457889770000023  0.3738338750000025  0.4992570000000001
  0.6457889770000023  0.8738338750000025  0.4992570000000001
  0.2878525790000026  0.4699116040000035  0.5006779220000013
  0.2878525790000026  0.9699116040000035  0.5006779220000013
  0.7878525790000026  0.4699116040000035  0.5006779220000013
  0.7878525790000026  0.9699116040000035  0.5006779220000013
  0.2109801269999991  0.3930315679999978  0.4997296180000035
  0.2109801269999991  0.8930315679999978  0.4997296180000035
  0.7109801269999991  0.3930315679999978  0.4997296180000035
  0.7109801269999991  0.8930315679999978  0.4997296180000035
  0.0903279320000010  0.4087773569999982  0.4993119900000025
  0.0903279320000010  0.9087773569999982  0.4993119900000025
  0.5903279320000010  0.4087773569999982  0.4993119900000025
  0.5903279320000010  0.9087773569999982  0.4993119900000025
  0.4697309530000027  0.3928623819999970  0.4998215009999996
  0.4697309530000027  0.8928623819999970  0.4998215009999996
  0.9697309530000027  0.3928623819999970  0.4998215009999996
  0.9697309530000027  0.8928623819999970  0.4998215009999996
  0.3928952850000016  0.4696945450000030  0.5007426829999986
  0.3928952850000016  0.9696945450000030  0.5007426829999986
  0.8928952850000016  0.4696945450000030  0.5007426829999986
  0.8928952850000016  0.9696945450000030  0.5007426829999986
  0.2283260330000019  0.2282956179999971  0.4999325799999994
  0.2283260330000019  0.7282956179999971  0.4999325799999994
  0.7283260330000019  0.2282956179999971  0.4999325799999994
  0.7283260330000019  0.7282956179999971  0.4999325799999994
  0.3404825829999965  0.2497915189999986  0.5002555140000027
  0.3404825829999965  0.7497915189999986  0.5002555140000027
  0.8404825829999965  0.2497915189999986  0.5002555140000027
  0.8404825829999965  0.7497915189999986  0.5002555140000027
  0.2498232370000011  0.3404518890000006  0.4998035309999977
  0.2498232370000011  0.8404518890000006  0.4998035309999977
  0.7498232370000011  0.3404518890000006  0.4998035309999977
  0.7498232370000011  0.8404518890000006  0.4998035309999977
  0.4527560029999975  0.2281261819999969  0.5000147510000019
  0.4527560029999975  0.7281261819999969  0.5000147510000019
  0.9527560029999975  0.2281261819999969  0.5000147510000019
  0.9527560029999975  0.7281261819999969  0.5000147510000019
  0.4310960890000004  0.3403891259999980  0.4999182059999967
  0.4310960890000004  0.8403891259999980  0.4999182059999967
  0.9310960890000004  0.3403891259999980  0.4999182059999967
  0.9310960890000004  0.8403891259999980  0.4999182059999967
  0.2281588729999982  0.4527256949999980  0.5002274839999998
  0.2281588729999982  0.9527256949999980  0.5002274839999998
  0.7281588729999982  0.4527256949999980  0.5002274839999998
  0.7281588729999982  0.9527256949999980  0.5002274839999998
  0.3404207999999969  0.4310627710000006  0.5005569910000034
  0.3404207999999969  0.9310627710000006  0.5005569910000034
  0.8404207999999969  0.4310627710000006  0.5005569910000034
  0.8404207999999969  0.9310627710000006  0.5005569910000034
  0.4525800560000022  0.4525460340000009  0.5003140489999964
  0.4525800560000022  0.9525460340000009  0.5003140489999964
  0.9525800560000022  0.4525460340000009  0.5003140489999964
  0.9525800560000022  0.9525460340000009  0.5003140489999964
  0.3404523740000016  0.3404213390000024  0.5001392940000002
  0.3404523740000016  0.8404213390000024  0.5001392940000002
  0.8404523740000016  0.3404213390000024  0.5001392940000002
  0.8404523740000016  0.8404213390000024  0.5001392940000002
 
  0.00000000E+00  0.00000000E+00  0.00000000E+00
  0.00000000E+00  0.00000000E+00  0.00000000E+00
  0.00000000E+00  0.00000000E+00  0.00000000E+00
  0.00000000E+00  0.00000000E+00  0.00000000E+00
  0.00000000E+00  0.00000000E+00  0.00000000E+00
  0.00000000E+00  0.00000000E+00  0.00000000E+00
  0.00000000E+00  0.00000000E+00  0.00000000E+00
  0.00000000E+00  0.00000000E+00  0.00000000E+00
  0.00000000E+00  0.00000000E+00  0.00000000E+00
  0.00000000E+00  0.00000000E+00  0.00000000E+00
  0.00000000E+00  0.00000000E+00  0.00000000E+00
  0.00000000E+00  0.00000000E+00  0.00000000E+00
  0.00000000E+00  0.00000000E+00  0.00000000E+00
  0.00000000E+00  0.00000000E+00  0.00000000E+00
  0.00000000E+00  0.00000000E+00  0.00000000E+00
  0.00000000E+00  0.00000000E+00  0.00000000E+00
  0.00000000E+00  0.00000000E+00  0.00000000E+00
  0.00000000E+00  0.00000000E+00  0.00000000E+00
  0.00000000E+00  0.00000000E+00  0.00000000E+00
  0.00000000E+00  0.00000000E+00  0.00000000E+00
  0.00000000E+00  0.00000000E+00  0.00000000E+00
  0.00000000E+00  0.00000000E+00  0.00000000E+00
  0.00000000E+00  0.00000000E+00  0.00000000E+00
  0.00000000E+00  0.00000000E+00  0.00000000E+00
  0.00000000E+00  0.00000000E+00  0.00000000E+00
  0.00000000E+00  0.00000000E+00  0.00000000E+00
  0.00000000E+00  0.00000000E+00  0.00000000E+00
  0.00000000E+00  0.00000000E+00  0.00000000E+00
  0.00000000E+00  0.00000000E+00  0.00000000E+00
  0.00000000E+00  0.00000000E+00  0.00000000E+00
  0.00000000E+00  0.00000000E+00  0.00000000E+00
  0.00000000E+00  0.00000000E+00  0.00000000E+00
  0.00000000E+00  0.00000000E+00  0.00000000E+00
  0.00000000E+00  0.00000000E+00  0.00000000E+00
  0.00000000E+00  0.00000000E+00  0.00000000E+00
  0.00000000E+00  0.00000000E+00  0.00000000E+00
  0.00000000E+00  0.00000000E+00  0.00000000E+00
  0.00000000E+00  0.00000000E+00  0.00000000E+00
  0.00000000E+00  0.00000000E+00  0.00000000E+00
  0.00000000E+00  0.00000000E+00  0.00000000E+00
  0.00000000E+00  0.00000000E+00  0.00000000E+00
  0.00000000E+00  0.00000000E+00  0.00000000E+00
  0.00000000E+00  0.00000000E+00  0.00000000E+00
  0.00000000E+00  0.00000000E+00  0.00000000E+00
  0.00000000E+00  0.00000000E+00  0.00000000E+00
  0.00000000E+00  0.00000000E+00  0.00000000E+00
  0.00000000E+00  0.00000000E+00  0.00000000E+00
  0.00000000E+00  0.00000000E+00  0.00000000E+00
  0.00000000E+00  0.00000000E+00  0.00000000E+00
  0.00000000E+00  0.00000000E+00  0.00000000E+00
  0.00000000E+00  0.00000000E+00  0.00000000E+00
  0.00000000E+00  0.00000000E+00  0.00000000E+00
  0.00000000E+00  0.00000000E+00  0.00000000E+00
  0.00000000E+00  0.00000000E+00  0.00000000E+00
  0.00000000E+00  0.00000000E+00  0.00000000E+00
  0.00000000E+00  0.00000000E+00  0.00000000E+00
  0.00000000E+00  0.00000000E+00  0.00000000E+00
  0.00000000E+00  0.00000000E+00  0.00000000E+00
  0.00000000E+00  0.00000000E+00  0.00000000E+00
  0.00000000E+00  0.00000000E+00  0.00000000E+00
  0.00000000E+00  0.00000000E+00  0.00000000E+00
  0.00000000E+00  0.00000000E+00  0.00000000E+00
  0.00000000E+00  0.00000000E+00  0.00000000E+00
  0.00000000E+00  0.00000000E+00  0.00000000E+00
  0.00000000E+00  0.00000000E+00  0.00000000E+00
  0.00000000E+00  0.00000000E+00  0.00000000E+00
  0.00000000E+00  0.00000000E+00  0.00000000E+00
  0.00000000E+00  0.00000000E+00  0.00000000E+00
  0.00000000E+00  0.00000000E+00  0.00000000E+00
  0.00000000E+00  0.00000000E+00  0.00000000E+00
  0.00000000E+00  0.00000000E+00  0.00000000E+00
  0.00000000E+00  0.00000000E+00  0.00000000E+00
  0.00000000E+00  0.00000000E+00  0.00000000E+00
  0.00000000E+00  0.00000000E+00  0.00000000E+00
  0.00000000E+00  0.00000000E+00  0.00000000E+00
  0.00000000E+00  0.00000000E+00  0.00000000E+00
  0.00000000E+00  0.00000000E+00  0.00000000E+00
  0.00000000E+00  0.00000000E+00  0.00000000E+00
  0.00000000E+00  0.00000000E+00  0.00000000E+00
  0.00000000E+00  0.00000000E+00  0.00000000E+00
  0.00000000E+00  0.00000000E+00  0.00000000E+00
  0.00000000E+00  0.00000000E+00  0.00000000E+00
  0.00000000E+00  0.00000000E+00  0.00000000E+00
  0.00000000E+00  0.00000000E+00  0.00000000E+00
  0.00000000E+00  0.00000000E+00  0.00000000E+00
  0.00000000E+00  0.00000000E+00  0.00000000E+00
  0.00000000E+00  0.00000000E+00  0.00000000E+00
  0.00000000E+00  0.00000000E+00  0.00000000E+00
  0.00000000E+00  0.00000000E+00  0.00000000E+00
  0.00000000E+00  0.00000000E+00  0.00000000E+00
  0.00000000E+00  0.00000000E+00  0.00000000E+00
  0.00000000E+00  0.00000000E+00  0.00000000E+00
  0.00000000E+00  0.00000000E+00  0.00000000E+00
  0.00000000E+00  0.00000000E+00  0.00000000E+00
  0.00000000E+00  0.00000000E+00  0.00000000E+00
  0.00000000E+00  0.00000000E+00  0.00000000E+00
  0.00000000E+00  0.00000000E+00  0.00000000E+00
  0.00000000E+00  0.00000000E+00  0.00000000E+00
  0.00000000E+00  0.00000000E+00  0.00000000E+00
  0.00000000E+00  0.00000000E+00  0.00000000E+00
  0.00000000E+00  0.00000000E+00  0.00000000E+00
  0.00000000E+00  0.00000000E+00  0.00000000E+00
  0.00000000E+00  0.00000000E+00  0.00000000E+00
  0.00000000E+00  0.00000000E+00  0.00000000E+00
  0.00000000E+00  0.00000000E+00  0.00000000E+00
  0.00000000E+00  0.00000000E+00  0.00000000E+00
  0.00000000E+00  0.00000000E+00  0.00000000E+00
  0.00000000E+00  0.00000000E+00  0.00000000E+00
  0.00000000E+00  0.00000000E+00  0.00000000E+00
  0.00000000E+00  0.00000000E+00  0.00000000E+00
  0.00000000E+00  0.00000000E+00  0.00000000E+00
  0.00000000E+00  0.00000000E+00  0.00000000E+00
  0.00000000E+00  0.00000000E+00  0.00000000E+00
  0.00000000E+00  0.00000000E+00  0.00000000E+00
  0.00000000E+00  0.00000000E+00  0.00000000E+00
  0.00000000E+00  0.00000000E+00  0.00000000E+00
  0.00000000E+00  0.00000000E+00  0.00000000E+00
  0.00000000E+00  0.00000000E+00  0.00000000E+00
  0.00000000E+00  0.00000000E+00  0.00000000E+00
  0.00000000E+00  0.00000000E+00  0.00000000E+00
  0.00000000E+00  0.00000000E+00  0.00000000E+00
  0.00000000E+00  0.00000000E+00  0.00000000E+00
  0.00000000E+00  0.00000000E+00  0.00000000E+00
  0.00000000E+00  0.00000000E+00  0.00000000E+00
  0.00000000E+00  0.00000000E+00  0.00000000E+00
  0.00000000E+00  0.00000000E+00  0.00000000E+00
  0.00000000E+00  0.00000000E+00  0.00000000E+00
  0.00000000E+00  0.00000000E+00  0.00000000E+00
  0.00000000E+00  0.00000000E+00  0.00000000E+00
  0.00000000E+00  0.00000000E+00  0.00000000E+00
  0.00000000E+00  0.00000000E+00  0.00000000E+00
  0.00000000E+00  0.00000000E+00  0.00000000E+00
